; benchmark generated from python API
(set-info :status unknown)
(declare-datatypes ((IntState 0)) (((Mk1 (val1 Int)) (Mk2 (val2 Int)))))
 (declare-fun |c_hanoi_#res| () Int)
(declare-fun |c_hanoi_#in~n| () Int)
(declare-fun c_hanoi_~n () Int)
(assert
 (let (($x75 (exists ((|v_hanoi_#t~ret0_27_st| IntState) (val!63 Int) )(exists ((v_nnf_150_st IntState) (val!64 Int) )(let (($x105 (<= |c_hanoi_#in~n| 3)))
 (let (($x62 (and (<= 1 (val2 v_nnf_150_st)) (<= (+ (* 2 (val2 v_nnf_150_st)) 1) (val2 |v_hanoi_#t~ret0_27_st|)) $x105 (<= (+ (* 2 (val2 |v_hanoi_#t~ret0_27_st|)) 1) |c_hanoi_#res|))))
 (let (($x52 (not (= v_nnf_150_st (Mk1 val!64)))))
 (let (($x82 (not (= |v_hanoi_#t~ret0_27_st| (Mk1 val!63)))))
 (and $x82 $x52 $x62))))))
 )
 ))
 (let (($x147 (<= |c_hanoi_#in~n| c_hanoi_~n)))
 (let (($x98 (exists ((|v_hanoi_#t~ret0_27| Int) )(exists ((v_nnf_150 Int) )(let (($x105 (<= |c_hanoi_#in~n| 3)))
 (and (<= 1 v_nnf_150) (<= (+ (* 2 v_nnf_150) 1) |v_hanoi_#t~ret0_27|) $x105 (<= (+ (* 2 |v_hanoi_#t~ret0_27|) 1) |c_hanoi_#res|))))
 )
 ))
 (and (and $x98 $x147) (not $x75))))))
(check-sat)
